43
1 0 5
2 0 10
2 1 10
3 0 4
3 1 13
3 2 6
4 0 7
4 1 15
4 2 1
4 3 8
5 0 14
5 1 10
5 2 11
5 3 9
5 4 9
6 0 3
6 1 14
6 2 11
6 3 1
6 4 10
6 5 8
7 0 3
7 1 11
7 2 9
7 3 3
7 4 8
7 5 2
7 6 1
8 0 5
8 1 11
8 2 8
8 3 15
8 4 11
8 5 13
8 6 14
8 7 6
9 0 12
9 1 9
9 2 1
9 3 12
9 4 2
9 5 7
9 6 1
9 7 10
9 8 5
10 0 13
10 1 5
10 2 5
10 3 11
10 4 9
10 5 15
10 6 1
10 7 4
10 8 8
10 9 8
11 0 5
11 1 9
11 2 5
11 3 5
11 4 8
11 5 14
11 6 6
11 7 12
11 8 1
11 9 8
11 10 3
12 0 14
12 1 8
12 2 3
12 3 9
12 4 6
12 5 11
12 6 12
12 7 15
12 8 5
12 9 14
12 10 5
12 11 5
13 0 6
13 1 6
13 2 1
13 3 7
13 4 3
13 5 11
13 6 8
13 7 4
13 8 8
13 9 9
13 10 5
13 11 1
13 12 8
14 0 13
14 1 1
14 2 6
14 3 6
14 4 13
14 5 15
14 6 2
14 7 3
14 8 8
14 9 8
14 10 8
14 11 9
14 12 7
14 13 1
15 0 8
15 1 11
15 2 5
15 3 6
15 4 12
15 5 7
15 6 12
15 7 10
15 8 3
15 9 12
15 10 1
15 11 14
15 12 11
15 13 4
15 14 13
16 0 4
16 1 15
16 2 9
16 3 7
16 4 1
16 5 5
16 6 12
16 7 12
16 8 13
16 9 1
16 10 2
16 11 13
16 12 5
16 13 11
16 14 11
16 15 4
17 0 6
17 1 1
17 2 10
17 3 1
17 4 7
17 5 6
17 6 1
17 7 11
17 8 12
17 9 15
17 10 6
17 11 14
17 12 11
17 13 15
17 14 8
17 15 12
17 16 13
18 0 2
18 1 1
18 2 10
18 3 9
18 4 7
18 5 11
18 6 10
18 7 8
18 8 1
18 9 4
18 10 1
18 11 11
18 12 7
18 13 11
18 14 1
18 15 10
18 16 15
18 17 8
19 0 2
19 1 13
19 2 1
19 3 4
19 4 8
19 5 1
19 6 14
19 7 1
19 8 11
19 9 2
19 10 1
19 11 12
19 12 10
19 13 1
19 14 2
19 15 4
19 16 7
19 17 9
19 18 2
20 0 3
20 1 4
20 2 7
20 3 3
20 4 14
20 5 14
20 6 12
20 7 15
20 8 9
20 9 1
20 10 2
20 11 1
20 12 3
20 13 14
20 14 3
20 15 15
20 16 14
20 17 1
20 18 10
20 19 2
21 0 4
21 1 2
21 2 14
21 3 1
21 4 12
21 5 7
21 6 14
21 7 2
21 8 14
21 9 14
21 10 3
21 11 1
21 12 14
21 13 6
21 14 9
21 15 13
21 16 6
21 17 2
21 18 2
21 19 3
21 20 1
22 0 15
22 1 5
22 2 2
22 3 5
22 4 4
22 5 1
22 6 2
22 7 6
22 8 3
22 9 10
22 10 4
22 11 10
22 12 3
22 13 8
22 14 3
22 15 6
22 16 8
22 17 12
22 18 9
22 19 8
22 20 4
22 21 10
23 0 14
23 1 15
23 2 11
23 3 15
23 4 4
23 5 7
23 6 8
23 7 15
23 8 14
23 9 8
23 10 11
23 11 14
23 12 5
23 13 7
23 14 5
23 15 4
23 16 7
23 17 5
23 18 3
23 19 8
23 20 2
23 21 15
23 22 14
24 0 13
24 1 9
24 2 12
24 3 14
24 4 3
24 5 10
24 6 9
24 7 10
24 8 15
24 9 7
24 10 1
24 11 14
24 12 13
24 13 11
24 14 10
24 15 9
24 16 14
24 17 5
24 18 1
24 19 7
24 20 9
24 21 10
24 22 4
24 23 8
25 0 4
25 1 5
25 2 13
25 3 14
25 4 11
25 5 13
25 6 4
25 7 10
25 8 5
25 9 1
25 10 1
25 11 14
25 12 9
25 13 4
25 14 3
25 15 4
25 16 5
25 17 6
25 18 12
25 19 2
25 20 5
25 21 3
25 22 1
25 23 15
25 24 1
26 0 7
26 1 1
26 2 4
26 3 2
26 4 6
26 5 12
26 6 3
26 7 9
26 8 15
26 9 3
26 10 9
26 11 8
26 12 5
26 13 5
26 14 7
26 15 7
26 16 5
26 17 6
26 18 4
26 19 6
26 20 13
26 21 8
26 22 15
26 23 8
26 24 3
26 25 6
27 0 6
27 1 7
27 2 11
27 3 1
27 4 7
27 5 7
27 6 5
27 7 9
27 8 6
27 9 1
27 10 3
27 11 1
27 12 2
27 13 6
27 14 1
27 15 13
27 16 15
27 17 4
27 18 10
27 19 14
27 20 8
27 21 4
27 22 8
27 23 11
27 24 9
27 25 12
27 26 10
28 0 14
28 1 10
28 2 15
28 3 15
28 4 11
28 5 15
28 6 2
28 7 10
28 8 7
28 9 15
28 10 12
28 11 11
28 12 14
28 13 11
28 14 12
28 15 13
28 16 7
28 17 8
28 18 9
28 19 11
28 20 5
28 21 13
28 22 12
28 23 9
28 24 10
28 25 9
28 26 8
28 27 9
29 0 13
29 1 14
29 2 12
29 3 2
29 4 11
29 5 8
29 6 15
29 7 13
29 8 2
29 9 15
29 10 14
29 11 2
29 12 5
29 13 8
29 14 6
29 15 5
29 16 7
29 17 5
29 18 6
29 19 10
29 20 13
29 21 14
29 22 7
29 23 5
29 24 15
29 25 4
29 26 14
29 27 14
29 28 9
30 0 5
30 1 7
30 2 9
30 3 5
30 4 15
30 5 1
30 6 6
30 7 1
30 8 8
30 9 1
30 10 14
30 11 6
30 12 7
30 13 1
30 14 9
30 15 11
30 16 12
30 17 12
30 18 4
30 19 14
30 20 7
30 21 7
30 22 9
30 23 10
30 24 3
30 25 14
30 26 11
30 27 4
30 28 2
30 29 11
31 0 11
31 1 12
31 2 13
31 3 13
31 4 3
31 5 15
31 6 12
31 7 11
31 8 6
31 9 1
31 10 13
31 11 4
31 12 5
31 13 9
31 14 15
31 15 3
31 16 1
31 17 15
31 18 7
31 19 6
31 20 7
31 21 13
31 22 9
31 23 2
31 24 13
31 25 6
31 26 5
31 27 2
31 28 10
31 29 1
31 30 11
32 0 1
32 1 1
32 2 6
32 3 13
32 4 9
32 5 3
32 6 7
32 7 12
32 8 6
32 9 12
32 10 8
32 11 8
32 12 15
32 13 15
32 14 15
32 15 2
32 16 9
32 17 9
32 18 4
32 19 12
32 20 6
32 21 14
32 22 1
32 23 1
32 24 2
32 25 6
32 26 11
32 27 5
32 28 10
32 29 2
32 30 4
32 31 10
33 0 14
33 1 2
33 2 4
33 3 6
33 4 2
33 5 10
33 6 11
33 7 5
33 8 1
33 9 13
33 10 14
33 11 3
33 12 12
33 13 9
33 14 1
33 15 10
33 16 10
33 17 11
33 18 9
33 19 13
33 20 9
33 21 8
33 22 13
33 23 4
33 24 3
33 25 2
33 26 9
33 27 3
33 28 2
33 29 13
33 30 2
33 31 12
33 32 11
34 0 12
34 1 7
34 2 15
34 3 12
34 4 8
34 5 14
34 6 5
34 7 15
34 8 3
34 9 2
34 10 4
34 11 7
34 12 10
34 13 2
34 14 5
34 15 4
34 16 12
34 17 12
34 18 1
34 19 9
34 20 13
34 21 8
34 22 5
34 23 7
34 24 7
34 25 12
34 26 13
34 27 5
34 28 12
34 29 7
34 30 5
34 31 1
34 32 1
34 33 4
35 0 2
35 1 4
35 2 15
35 3 8
35 4 6
35 5 10
35 6 2
35 7 10
35 8 12
35 9 10
35 10 1
35 11 11
35 12 10
35 13 3
35 14 5
35 15 6
35 16 6
35 17 6
35 18 4
35 19 14
35 20 1
35 21 3
35 22 7
35 23 2
35 24 15
35 25 14
35 26 5
35 27 7
35 28 5
35 29 10
35 30 2
35 31 1
35 32 11
35 33 12
35 34 11
36 0 2
36 1 4
36 2 8
36 3 12
36 4 4
36 5 2
36 6 2
36 7 4
36 8 1
36 9 15
36 10 7
36 11 10
36 12 6
36 13 14
36 14 5
36 15 8
36 16 8
36 17 3
36 18 10
36 19 12
36 20 1
36 21 15
36 22 10
36 23 11
36 24 10
36 25 15
36 26 2
36 27 6
36 28 6
36 29 8
36 30 15
36 31 11
36 32 5
36 33 5
36 34 2
36 35 2
37 0 15
37 1 4
37 2 7
37 3 15
37 4 15
37 5 7
37 6 15
37 7 15
37 8 6
37 9 5
37 10 3
37 11 1
37 12 5
37 13 9
37 14 2
37 15 7
37 16 13
37 17 11
37 18 13
37 19 11
37 20 11
37 21 6
37 22 2
37 23 4
37 24 9
37 25 5
37 26 11
37 27 1
37 28 9
37 29 14
37 30 13
37 31 9
37 32 15
37 33 4
37 34 15
37 35 9
37 36 6
38 0 9
38 1 8
38 2 4
38 3 6
38 4 3
38 5 15
38 6 11
38 7 9
38 8 15
38 9 8
38 10 11
38 11 7
38 12 11
38 13 12
38 14 12
38 15 7
38 16 6
38 17 2
38 18 15
38 19 13
38 20 11
38 21 15
38 22 15
38 23 5
38 24 14
38 25 13
38 26 3
38 27 11
38 28 9
38 29 9
38 30 2
38 31 4
38 32 11
38 33 11
38 34 15
38 35 9
38 36 3
38 37 13
39 0 6
39 1 15
39 2 1
39 3 11
39 4 5
39 5 5
39 6 13
39 7 4
39 8 6
39 9 12
39 10 8
39 11 5
39 12 11
39 13 5
39 14 2
39 15 2
39 16 12
39 17 9
39 18 13
39 19 2
39 20 8
39 21 5
39 22 9
39 23 14
39 24 4
39 25 6
39 26 4
39 27 11
39 28 3
39 29 9
39 30 15
39 31 15
39 32 7
39 33 4
39 34 2
39 35 3
39 36 12
39 37 4
39 38 5
40 0 6
40 1 10
40 2 5
40 3 15
40 4 7
40 5 4
40 6 9
40 7 8
40 8 2
40 9 8
40 10 3
40 11 8
40 12 2
40 13 3
40 14 15
40 15 13
40 16 14
40 17 4
40 18 12
40 19 4
40 20 7
40 21 8
40 22 12
40 23 3
40 24 6
40 25 4
40 26 6
40 27 5
40 28 1
40 29 15
40 30 6
40 31 7
40 32 1
40 33 13
40 34 12
40 35 7
40 36 14
40 37 2
40 38 14
40 39 10
41 0 2
41 1 4
41 2 6
41 3 6
41 4 13
41 5 6
41 6 10
41 7 12
41 8 1
41 9 10
41 10 12
41 11 10
41 12 3
41 13 9
41 14 14
41 15 14
41 16 3
41 17 5
41 18 5
41 19 4
41 20 10
41 21 7
41 22 5
41 23 14
41 24 4
41 25 4
41 26 6
41 27 3
41 28 7
41 29 6
41 30 15
41 31 7
41 32 1
41 33 9
41 34 15
41 35 13
41 36 12
41 37 3
41 38 15
41 39 10
41 40 15
42 0 6
42 1 15
42 2 13
42 3 12
42 4 11
42 5 8
42 6 7
42 7 2
42 8 11
42 9 12
42 10 2
42 11 15
42 12 13
42 13 7
42 14 2
42 15 5
42 16 4
42 17 3
42 18 7
42 19 4
42 20 9
42 21 13
42 22 9
42 23 6
42 24 15
42 25 2
42 26 14
42 27 12
42 28 14
42 29 5
42 30 6
42 31 9
42 32 10
42 33 15
42 34 2
42 35 2
42 36 15
42 37 14
42 38 2
42 39 8
42 40 13
42 41 8
